p cnf 21 10
e 1 0
a 2 3 0
e 4 0
a 5 6 0
e 7 8 9 10 0
a 11 12 13 0
e 14 0
a 15 0
e 16 0
a 17 18 0
e 19 0
a 20 0
e 21 0
10 -3 14 -20 13 0
9 12 1 0
12 -17 9 -19 -18 0
18 -2 3 7 0
-17 -12 10 18 0
-15 6 -11 18 -10 0
-16 -18 21 19 13 0
10 -11 13 19 1 0
13 17 -1 -7 -10 0
-19 -14 -20 11 -10 0
